 Minimize
[ 1.0000000000000000 Z0 * Z4  ]
Subject to
c1: [ -1.0000000000000000 Z2 * Z5  ] >= -675.000000
c2: [ -0.1000000000000000 Z6 * Z6  ] >= -0.419000
c3: [ 1.0000000000000000 Z0 * Z4  + 0.0020100000000000 Z2 * Z8  ] = 0.000000
ac1: Z0 - 1 = 0
ac2: [ 1.0000000000000000 Z0 * Z5 -1.0000000000000000 Z1 * Z1  ] = 0
ac3: [ 1.0000000000000000 Z0 * Z6 -1.0000000000000000 Z1 * Z3  ] = 0
ac4: [ 1.0000000000000000 Z1 * Z6 -1.0000000000000000 Z3 * Z5  ] = 0
ac5: [ 1.0000000000000000 Z0 * Z7 -1.0000000000000000 Z1 * Z6  ] = 0
ac6: [ 1.0000000000000000 Z0 * Z7 -1.0000000000000000 Z3 * Z5  ] = 0
ac7: [ 1.0000000000000000 Z1 * Z7 -1.0000000000000000 Z5 * Z6  ] = 0
ac8: [ 1.0000000000000000 Z3 * Z7 -1.0000000000000000 Z6 * Z6  ] = 0
ac9: [ 1.0000000000000000 Z0 * Z8 -1.0000000000000000 Z7 * Z7  ] = 0
Bounds
1 <= Z0 <= 1
0.0000000000000000 <= Z1 <= 200.0000000000000000
0.0000000000000000 <= Z2 <= 200.0000000000000000
0.0000000000000000 <= Z3 <= 0.2000000000000000
-100000000.0000000000000000 <= Z4 <= 100000000.0000000000000000
0.0000000000000000 <= Z5 <= 40000.0000000000000000
0.0000000000000000 <= Z6 <= 40.0000000000000071
0.0000000000000000 <= Z7 <= 8000.0000000000009095
0.0000000000000000 <= Z8 <= 64000000.0000000223517418
Generals
Z1 Z2 
End